49
120
83	2
82	2
81	2
80	4
79	2
78	2
76	1
75	4
74	1
71	2
69	2
68	2
67	3
65	2
64	3
61	1
59	5
58	3
57	1
56	2
54	2
53	2
52	3
51	3
50	2
49	1
48	2
47	2
46	1
45	2
44	3
43	1
42	2
41	1
40	3
39	1
38	3
37	3
36	1
35	2
34	1
33	1
32	1
31	2
30	2
29	4
27	1
26	1
25	1
